set VV := 0 1 2 3 4 5 6 7 8 9 10 11 12 13 14 15 16 17 18 19 20 21 22 23 24 25 26 27 28 29 30 31 32 33 34 35 36 37 38 39 40 41 42 43 44 ;
set VS := 0 1 2 3 4 5 6 7 8 9 10 11 12 13 14 15 16 17 18 19 20 21 22 23 24 25 26 27 28 29 30 31 32 33 34 35 36 37 38 39 40 41 42 43 44 45 46 47 48 49 50 51 52 53 54 55 56 57 58 59 60 61 62 63 64 65 66 67 68 69 70 71 72 73 74 75 76 77 78 79 80 81 82 83 84 85 86 87 88 89 90 91 92 93 94 ;
param cv := 
0 14
1 12
2 16
3 12
4 22
5 16
6 25
7 25
8 21
9 16
10 21
11 15
12 24
13 25
14 24
15 21
16 18
17 14
18 25
19 14
20 13
21 18
22 20
23 23
24 23
25 12
26 25
27 21
28 25
29 24
30 19
31 14
32 20
33 22
34 20
35 16
36 17
37 14
38 14
39 18
40 19
41 23
42 11
43 17
44 16
;
param cs := 
0 39
1 39
2 24
3 22
4 38
5 33
6 28
7 23
8 40
9 32
10 31
11 23
12 32
13 39
14 28
15 20
16 32
17 30
18 33
19 25
20 22
21 31
22 21
23 39
24 24
25 27
26 37
27 23
28 23
29 40
30 29
31 29
32 28
33 32
34 22
35 28
36 24
37 27
38 29
39 30
40 23
41 25
42 29
43 37
44 25
45 23
46 38
47 31
48 35
49 38
50 39
51 24
52 37
53 31
54 20
55 26
56 26
57 28
58 39
59 35
60 27
61 32
62 32
63 31
64 29
65 34
66 37
67 35
68 27
69 35
70 39
71 39
72 31
73 21
74 25
75 37
76 36
77 23
78 24
79 37
80 27
81 40
82 25
83 27
84 39
85 20
86 39
87 22
88 29
89 26
90 29
91 33
92 32
93 21
94 30
;
param bv:	 0 1 2 3 4 5 6 7 8 9 10 11 12 13 14 15 16 17 18 19 20 21 22 23 24 25 26 27 28 29 30 31 32 33 34 35 36 37 38 39 40 41 42 43 44 := 
		0 0 0 0 0 0 0 0 0 0 18 0 0 0 0 0 0 0 23 0 0 0 0 0 0 0 0 0 0 0 0 25 0 0 23 0 0 0 0 0 0 0 0 0 0 0 
		1 0 0 12 0 0 0 0 0 0 0 0 0 0 0 0 0 0 0 14 0 0 0 0 19 0 0 0 0 0 0 0 0 0 0 15 0 0 0 13 0 0 0 0 0 0 
		2 0 0 0 0 0 0 0 0 19 0 0 0 0 19 0 0 0 23 0 0 0 12 0 0 0 0 0 0 0 0 0 0 21 0 0 12 0 0 0 0 0 0 0 0 11 
		3 0 0 0 0 0 0 0 0 0 0 0 0 0 0 0 0 0 0 0 0 0 0 0 0 0 0 0 15 0 0 0 0 0 0 0 0 0 0 0 0 0 10 0 0 0 
		4 0 0 0 0 0 0 0 0 0 0 17 11 15 0 0 16 0 0 17 0 0 0 0 0 0 10 0 0 0 0 0 0 0 14 0 0 12 0 0 0 21 19 0 0 0 
		5 0 0 0 0 0 0 0 0 0 0 0 0 0 0 0 0 0 0 0 0 0 0 16 0 18 0 0 0 12 0 0 0 0 0 0 0 0 0 0 0 0 0 0 0 0 
		6 0 0 0 0 0 0 0 0 14 0 0 0 0 0 0 0 0 0 0 0 15 0 0 0 0 0 0 0 0 0 0 0 0 0 0 0 0 0 0 0 0 0 0 0 0 
		7 0 0 0 0 0 0 0 0 0 0 0 23 0 0 0 0 0 0 0 0 19 0 0 0 0 0 0 0 0 0 0 0 0 0 0 0 0 10 0 0 0 0 0 0 0 
		8 0 0 0 0 0 0 0 0 0 0 0 0 0 18 0 0 0 23 0 14 0 0 0 11 0 0 0 23 0 0 0 0 0 0 0 0 0 0 0 0 0 0 0 0 0 
		9 0 0 0 0 0 0 0 0 0 0 0 0 0 0 0 23 0 0 0 0 18 25 0 0 0 10 11 0 0 0 0 15 0 0 0 0 16 0 0 0 0 13 0 16 0 
		10 0 0 0 0 0 0 0 0 0 0 0 0 0 0 0 0 0 0 0 0 0 0 0 0 0 0 0 0 0 0 0 0 0 14 0 0 0 0 0 0 0 0 0 18 0 
		11 0 0 0 0 0 0 0 0 0 0 0 0 0 0 0 0 0 0 0 0 0 0 0 0 0 0 0 0 0 0 0 0 0 0 0 0 15 0 0 0 0 0 0 24 0 
		12 0 0 0 0 0 0 0 0 0 0 0 0 0 0 0 23 0 0 0 0 0 0 0 0 0 0 0 0 0 0 0 0 0 0 0 0 0 0 0 0 0 0 0 0 0 
		13 0 0 0 0 0 0 0 0 0 0 0 0 0 0 0 0 0 0 0 0 0 0 17 0 0 0 0 0 0 24 0 0 0 0 16 0 0 0 0 0 0 11 0 0 0 
		14 0 0 0 0 0 0 0 0 0 0 0 0 0 0 0 14 0 0 0 0 0 0 0 0 0 0 23 0 0 0 0 0 0 16 0 0 0 0 0 0 0 0 15 0 0 
		15 0 0 0 0 0 0 0 0 0 0 0 0 0 0 0 0 10 0 0 0 0 0 25 0 23 19 0 25 0 19 0 0 0 16 0 0 0 0 0 0 0 24 11 11 0 
		16 0 0 0 0 0 0 0 0 0 0 0 0 0 0 0 0 0 0 0 0 18 0 0 0 0 0 0 24 0 0 0 0 0 11 0 0 0 0 0 0 24 0 13 0 0 
		17 0 0 0 0 0 0 0 0 0 0 0 0 0 0 0 0 0 0 0 0 0 0 0 0 0 0 0 0 0 0 12 0 18 0 0 0 0 0 0 0 13 0 0 12 0 
		18 0 0 0 0 0 0 0 0 0 0 0 0 0 0 0 0 0 0 0 0 0 0 0 0 0 0 0 0 0 0 0 0 24 0 0 0 0 0 0 0 0 0 0 0 0 
		19 0 0 0 0 0 0 0 0 0 0 0 0 0 0 0 0 0 0 0 0 0 0 0 0 0 0 0 0 0 0 0 0 0 0 0 0 15 0 0 15 0 0 0 0 10 
		20 0 0 0 0 0 0 0 0 0 0 0 0 0 0 0 0 0 0 0 0 0 13 0 0 0 0 0 0 0 0 0 21 0 20 0 0 14 23 0 0 0 0 0 0 0 
		21 0 0 0 0 0 0 0 0 0 0 0 0 0 0 0 0 0 0 0 0 0 0 0 0 0 0 0 0 0 0 0 0 0 0 0 0 0 0 0 0 0 0 0 16 0 
		22 0 0 0 0 0 0 0 0 0 0 0 0 0 0 0 0 0 0 0 0 0 0 0 0 0 0 0 0 0 21 0 0 0 0 0 0 0 0 0 0 15 0 0 0 24 
		23 0 0 0 0 0 0 0 0 0 0 0 0 0 0 0 0 0 0 0 0 0 0 0 0 0 0 0 0 0 0 0 0 0 0 0 0 0 0 0 0 0 0 0 0 0 
		24 0 0 0 0 0 0 0 0 0 0 0 0 0 0 0 0 0 0 0 0 0 0 0 0 0 0 0 0 0 10 0 0 0 0 10 0 0 0 0 0 0 0 0 0 0 
		25 0 0 0 0 0 0 0 0 0 0 0 0 0 0 0 0 0 0 0 0 0 0 0 0 0 0 0 0 0 0 0 0 0 0 0 0 0 0 0 0 0 17 0 20 0 
		26 0 0 0 0 0 0 0 0 0 0 0 0 0 0 0 0 0 0 0 0 0 0 0 0 0 0 0 0 0 0 0 0 0 15 0 0 0 0 0 0 0 0 0 0 0 
		27 0 0 0 0 0 0 0 0 0 0 0 0 0 0 0 0 0 0 0 0 0 0 0 0 0 0 0 0 0 0 0 0 0 21 0 0 0 16 0 0 0 0 0 0 0 
		28 0 0 0 0 0 0 0 0 0 0 0 0 0 0 0 0 0 0 0 0 0 0 0 0 0 0 0 0 0 0 0 18 0 0 0 0 0 12 19 0 0 0 0 0 0 
		29 0 0 0 0 0 0 0 0 0 0 0 0 0 0 0 0 0 0 0 0 0 0 0 0 0 0 0 0 0 0 0 0 0 0 0 0 0 0 0 0 0 21 0 0 0 
		30 0 0 0 0 0 0 0 0 0 0 0 0 0 0 0 0 0 0 0 0 0 0 0 0 0 0 0 0 0 0 0 0 0 0 17 0 11 0 0 0 0 0 0 0 0 
		31 0 0 0 0 0 0 0 0 0 0 0 0 0 0 0 0 0 0 0 0 0 0 0 0 0 0 0 0 0 0 0 0 0 18 0 0 0 0 0 0 0 0 0 0 0 
		32 0 0 0 0 0 0 0 0 0 0 0 0 0 0 0 0 0 0 0 0 0 0 0 0 0 0 0 0 0 0 0 0 0 0 19 0 0 0 0 0 0 0 0 0 19 
		33 0 0 0 0 0 0 0 0 0 0 0 0 0 0 0 0 0 0 0 0 0 0 0 0 0 0 0 0 0 0 0 0 0 0 0 0 0 0 0 0 0 0 11 0 0 
		34 0 0 0 0 0 0 0 0 0 0 0 0 0 0 0 0 0 0 0 0 0 0 0 0 0 0 0 0 0 0 0 0 0 0 0 0 0 0 25 0 0 0 0 0 0 
		35 0 0 0 0 0 0 0 0 0 0 0 0 0 0 0 0 0 0 0 0 0 0 0 0 0 0 0 0 0 0 0 0 0 0 0 0 0 0 0 0 0 0 0 0 0 
		36 0 0 0 0 0 0 0 0 0 0 0 0 0 0 0 0 0 0 0 0 0 0 0 0 0 0 0 0 0 0 0 0 0 0 0 0 0 0 0 0 0 0 0 0 0 
		37 0 0 0 0 0 0 0 0 0 0 0 0 0 0 0 0 0 0 0 0 0 0 0 0 0 0 0 0 0 0 0 0 0 0 0 0 0 0 0 0 0 22 0 0 17 
		38 0 0 0 0 0 0 0 0 0 0 0 0 0 0 0 0 0 0 0 0 0 0 0 0 0 0 0 0 0 0 0 0 0 0 0 0 0 0 0 0 0 0 0 0 0 
		39 0 0 0 0 0 0 0 0 0 0 0 0 0 0 0 0 0 0 0 0 0 0 0 0 0 0 0 0 0 0 0 0 0 0 0 0 0 0 0 0 0 0 21 0 0 
		40 0 0 0 0 0 0 0 0 0 0 0 0 0 0 0 0 0 0 0 0 0 0 0 0 0 0 0 0 0 0 0 0 0 0 0 0 0 0 0 0 0 0 0 0 0 
		41 0 0 0 0 0 0 0 0 0 0 0 0 0 0 0 0 0 0 0 0 0 0 0 0 0 0 0 0 0 0 0 0 0 0 0 0 0 0 0 0 0 0 0 0 0 
		42 0 0 0 0 0 0 0 0 0 0 0 0 0 0 0 0 0 0 0 0 0 0 0 0 0 0 0 0 0 0 0 0 0 0 0 0 0 0 0 0 0 0 0 0 0 
		43 0 0 0 0 0 0 0 0 0 0 0 0 0 0 0 0 0 0 0 0 0 0 0 0 0 0 0 0 0 0 0 0 0 0 0 0 0 0 0 0 0 0 0 0 0 
		44 0 0 0 0 0 0 0 0 0 0 0 0 0 0 0 0 0 0 0 0 0 0 0 0 0 0 0 0 0 0 0 0 0 0 0 0 0 0 0 0 0 0 0 0 0 
;
param bs:	 0 1 2 3 4 5 6 7 8 9 10 11 12 13 14 15 16 17 18 19 20 21 22 23 24 25 26 27 28 29 30 31 32 33 34 35 36 37 38 39 40 41 42 43 44 45 46 47 48 49 50 51 52 53 54 55 56 57 58 59 60 61 62 63 64 65 66 67 68 69 70 71 72 73 74 75 76 77 78 79 80 81 82 83 84 85 86 87 88 89 90 91 92 93 94 := 
		0 0 0 0 33 35 0 0 31 25 0 0 0 0 0 0 29 0 0 0 0 0 0 0 0 0 0 0 20 0 0 0 0 0 0 0 0 0 35 0 0 31 0 0 0 0 0 21 0 0 0 0 0 0 0 0 33 0 0 0 0 0 0 0 0 25 0 21 0 0 0 33 0 0 0 0 0 0 30 0 0 0 39 0 0 0 0 0 0 0 0 0 0 0 0 0 
		1 0 0 0 26 0 0 0 0 0 0 0 27 0 0 0 0 0 0 0 0 0 0 0 0 0 0 0 0 0 0 0 0 0 0 0 0 0 0 40 33 0 0 0 0 0 27 27 0 0 0 0 0 0 0 0 0 0 0 0 0 0 36 0 0 0 0 0 0 0 0 0 0 0 0 0 0 39 0 0 0 0 0 35 0 0 0 36 0 0 39 0 0 0 23 0 
		2 0 0 0 0 0 0 0 0 0 0 0 0 32 0 0 27 0 0 0 0 24 0 28 32 26 0 0 0 0 0 0 25 0 35 37 0 38 0 0 0 0 0 0 0 22 0 0 0 0 0 36 21 0 0 0 0 0 24 0 0 31 0 0 0 0 0 22 0 0 31 0 0 0 0 0 0 0 0 0 0 0 40 0 27 0 20 0 0 0 0 0 0 0 0 0 
		3 33 26 0 0 0 0 0 0 0 0 0 0 26 0 0 0 0 0 0 0 0 0 0 0 0 0 0 0 0 0 0 0 0 26 0 0 0 0 0 0 0 0 0 0 0 0 0 0 0 0 0 0 0 0 0 0 0 0 0 0 0 0 0 0 0 0 0 0 0 0 0 0 28 0 0 0 0 20 0 0 35 0 0 0 0 0 0 0 0 0 0 35 0 28 0 
		4 35 0 0 0 0 0 0 0 0 38 0 0 0 0 28 0 0 25 0 0 0 0 0 0 0 0 0 0 0 0 0 0 0 0 0 0 0 0 0 0 0 0 0 0 0 0 0 0 0 0 0 0 0 0 0 0 0 0 0 0 0 0 0 0 0 0 0 0 0 0 0 0 0 0 0 0 0 0 0 0 0 0 0 0 0 0 0 0 0 0 0 0 0 0 0 
		5 0 0 0 0 0 0 0 0 0 0 27 0 0 0 0 0 0 0 0 0 0 0 0 0 0 0 0 0 0 0 0 0 0 0 0 0 0 38 37 0 0 0 0 0 0 0 0 0 0 0 0 0 25 0 0 0 0 0 0 0 0 0 0 0 0 0 0 32 0 0 0 0 0 0 0 0 23 0 0 0 0 0 0 0 0 0 0 0 0 0 0 0 0 0 0 
		6 0 0 0 0 0 0 0 0 0 0 0 0 0 32 0 0 0 0 0 0 0 28 0 0 36 0 0 0 0 0 0 0 0 0 21 0 30 0 25 36 0 36 20 0 0 0 0 0 0 0 0 0 0 0 0 0 0 0 0 0 29 28 0 0 36 0 0 0 0 0 0 0 30 0 28 0 0 0 0 0 0 0 0 36 0 0 0 25 0 0 0 0 0 0 0 
		7 31 0 0 0 0 0 0 0 0 0 21 0 0 0 0 0 0 0 0 0 0 0 0 0 0 0 0 0 0 0 22 0 0 0 0 0 0 0 0 0 0 0 0 0 0 0 29 22 0 0 0 0 0 0 0 0 0 0 0 0 0 0 0 0 0 0 0 0 35 0 0 40 0 20 0 0 0 0 26 0 0 0 0 0 0 0 0 0 30 0 0 0 0 0 0 
		8 25 0 0 0 0 0 0 0 0 0 0 0 27 0 0 0 0 0 0 0 0 0 0 0 0 0 0 0 0 0 0 0 0 0 0 0 0 0 0 0 0 0 0 0 0 36 0 0 0 0 0 0 0 0 0 0 0 0 0 0 0 0 0 0 34 0 0 0 22 23 0 0 0 0 0 36 0 35 0 0 0 0 0 0 0 0 28 0 0 0 0 0 0 0 0 
		9 0 0 0 0 38 0 0 0 0 0 0 0 0 0 35 0 31 0 0 22 0 0 0 0 0 0 0 0 0 0 0 0 0 31 0 0 0 0 0 0 0 0 0 0 0 0 0 0 0 24 0 40 0 24 28 0 0 0 0 30 0 0 0 0 0 0 0 0 0 0 28 0 33 0 32 0 0 0 0 0 0 0 0 0 0 0 0 0 0 0 0 0 0 0 0 
		10 0 0 0 0 0 27 0 21 0 0 0 0 0 0 26 0 0 0 0 0 0 39 0 0 0 0 0 0 0 33 0 0 0 26 0 0 20 0 0 33 0 0 0 0 0 0 0 0 0 0 32 0 0 0 0 0 38 0 0 22 0 0 0 0 0 0 0 0 0 34 0 0 0 0 0 0 22 0 0 0 0 0 0 0 0 0 0 0 0 0 0 0 0 0 0 
		11 0 27 0 0 0 0 0 0 0 0 0 0 0 0 0 0 0 0 0 0 38 0 20 0 23 0 0 0 0 0 0 39 0 0 0 0 0 0 0 0 0 0 0 0 0 0 0 0 0 0 26 0 0 0 0 0 0 0 0 0 0 0 0 0 0 0 0 0 0 0 0 0 0 0 0 0 0 0 0 0 0 0 0 0 0 23 0 0 0 0 0 0 0 0 0 
		12 0 0 32 26 0 0 0 0 27 0 0 0 0 27 0 0 0 0 0 0 0 0 0 0 0 0 0 0 0 0 0 0 0 0 0 0 0 0 0 0 0 0 0 0 0 0 0 0 0 0 0 0 0 0 0 0 0 0 0 0 0 0 0 0 0 0 0 0 31 0 25 0 0 0 0 0 0 0 0 0 0 0 0 0 0 0 0 0 0 0 0 0 0 0 0 
		13 0 0 0 0 0 0 32 0 0 0 0 0 27 0 0 0 0 0 26 0 0 0 0 0 24 0 0 0 34 0 0 0 0 0 0 0 0 0 29 0 0 0 0 0 34 0 0 0 38 0 38 0 0 0 0 0 28 0 0 0 0 0 0 0 0 0 0 0 0 0 0 0 0 0 0 0 0 0 0 0 0 0 20 0 0 0 0 0 25 0 0 36 0 0 0 
		14 0 0 0 0 28 0 0 0 0 35 26 0 0 0 0 0 0 0 0 0 0 0 0 0 0 23 0 0 0 0 0 0 0 0 0 0 0 35 0 0 32 0 0 0 0 37 0 0 0 0 0 38 0 0 0 0 0 37 0 31 0 0 21 0 0 0 0 0 29 0 0 21 0 0 0 0 0 0 0 0 0 0 0 0 0 0 0 0 0 0 0 0 0 0 0 
		15 29 0 27 0 0 0 0 0 0 0 0 0 0 0 0 0 0 0 0 0 0 0 0 28 0 0 0 0 0 0 0 0 25 0 0 0 0 0 0 0 0 0 0 0 0 0 0 0 0 0 0 0 0 0 0 0 0 0 0 0 0 0 0 0 30 0 36 0 0 0 0 0 0 0 0 0 0 0 0 0 0 0 0 0 27 0 0 0 0 0 0 0 0 26 0 
		16 0 0 0 0 0 0 0 0 0 31 0 0 0 0 0 0 0 0 0 0 0 0 31 0 0 0 0 0 0 39 0 0 0 27 0 0 0 0 0 0 0 0 0 0 0 0 0 0 0 0 0 0 0 0 0 0 0 0 0 0 0 0 0 0 0 0 0 0 0 0 0 20 0 24 31 0 0 0 0 0 0 0 0 0 0 0 0 0 0 0 0 0 0 0 0 
		17 0 0 0 0 25 0 0 0 0 0 0 0 0 0 0 0 0 0 0 0 0 0 0 0 0 0 0 0 0 0 0 0 0 0 0 0 0 0 0 0 0 0 0 0 0 0 0 0 0 0 0 24 0 0 0 29 0 0 0 0 0 0 0 0 0 0 0 39 37 0 25 0 0 0 21 0 0 0 22 0 0 38 0 30 0 0 0 0 0 0 40 0 0 0 0 
		18 0 0 0 0 0 0 0 0 0 0 0 0 0 26 0 0 0 0 0 0 0 0 0 0 0 0 0 0 0 0 0 0 0 0 0 20 0 0 0 0 0 0 0 0 23 0 0 0 0 0 20 0 0 0 0 0 0 0 0 0 0 0 0 0 0 0 0 0 0 0 0 0 0 0 0 0 0 0 0 0 0 0 0 0 0 0 0 0 26 0 0 0 0 0 0 
		19 0 0 0 0 0 0 0 0 0 22 0 0 0 0 0 0 0 0 0 0 0 0 0 0 0 0 0 0 0 0 0 33 0 30 0 0 0 23 0 0 0 0 0 0 0 0 0 0 0 0 25 32 26 0 0 0 0 0 0 0 0 0 0 0 0 25 0 0 0 0 0 0 0 33 0 0 0 0 0 0 0 0 0 0 0 0 0 0 0 0 0 0 0 0 0 
		20 0 0 24 0 0 0 0 0 0 0 0 38 0 0 0 0 0 0 0 0 0 0 0 0 39 0 0 0 0 0 0 0 0 0 0 0 0 23 0 0 0 0 0 0 0 0 0 0 0 0 37 0 0 0 0 0 0 0 0 0 0 0 0 0 0 0 0 0 0 26 0 0 20 0 22 22 0 0 39 0 0 0 0 0 0 0 0 0 40 0 0 0 0 0 0 
		21 0 0 0 0 0 0 28 0 0 0 39 0 0 0 0 0 0 0 0 0 0 0 0 0 0 0 0 0 0 0 0 0 0 0 0 0 0 0 0 29 0 0 0 0 0 24 30 0 0 0 0 0 0 0 0 0 0 0 0 20 0 0 0 0 27 0 0 0 0 0 0 0 0 30 0 0 0 0 0 0 32 0 0 0 0 0 0 0 0 0 0 0 24 0 24 
		22 0 0 28 0 0 0 0 0 0 0 0 20 0 0 0 0 31 0 0 0 0 0 0 0 0 0 35 0 0 0 0 0 0 0 38 0 0 0 0 0 0 27 0 0 0 0 0 0 0 0 0 0 0 0 0 0 25 0 0 0 0 0 0 0 0 0 0 0 37 0 35 0 0 0 0 0 0 0 0 0 0 0 0 0 0 0 0 0 0 0 0 0 0 0 0 
		23 0 0 32 0 0 0 0 0 0 0 0 0 0 0 0 28 0 0 0 0 0 0 0 0 0 0 0 0 0 0 0 0 0 0 23 0 0 0 33 0 0 0 0 24 0 0 0 0 0 0 0 0 0 0 0 0 39 0 0 28 0 0 0 0 0 33 0 0 25 0 0 0 0 40 0 0 0 0 0 0 0 0 0 37 0 0 0 21 0 0 30 0 33 0 0 
		24 0 0 26 0 0 0 36 0 0 0 0 23 0 24 0 0 0 0 0 0 39 0 0 0 0 0 0 0 0 0 0 0 0 0 24 25 0 0 0 0 0 34 0 0 0 0 0 0 0 0 0 0 0 0 0 0 0 0 0 0 0 0 0 0 0 0 0 0 0 0 36 0 28 0 0 0 0 0 0 0 0 0 0 0 0 28 0 0 0 0 0 0 0 0 0 
		25 0 0 0 0 0 0 0 0 0 0 0 0 0 0 23 0 0 0 0 0 0 0 0 0 0 0 36 0 0 0 0 29 24 0 0 35 37 0 0 0 0 0 0 0 0 20 0 0 0 35 0 0 0 0 0 0 0 34 0 0 0 0 0 31 0 0 0 0 0 0 0 0 34 0 0 0 0 0 0 0 0 0 0 0 0 0 0 0 0 0 0 0 0 0 0 
		26 0 0 0 0 0 0 0 0 0 0 0 0 0 0 0 0 0 0 0 0 0 0 35 0 0 36 0 0 0 0 0 0 0 0 0 33 0 0 0 0 0 20 0 0 0 0 0 0 0 0 0 0 0 0 0 0 40 0 0 0 0 37 0 0 0 0 0 0 0 0 0 0 0 0 0 0 0 0 0 0 0 0 0 0 0 0 0 0 0 0 0 0 0 0 0 
		27 20 0 0 0 0 0 0 0 0 0 0 0 0 0 0 0 0 0 0 0 0 0 0 0 0 0 0 0 0 32 0 0 0 0 0 0 0 0 0 0 0 0 0 0 0 0 0 0 0 30 0 0 0 0 28 0 0 0 0 0 0 0 0 0 0 0 0 0 29 0 0 0 29 37 0 0 0 26 0 0 0 0 0 0 0 0 0 22 0 38 0 25 39 0 0 
		28 0 0 0 0 0 0 0 0 0 0 0 0 0 34 0 0 0 0 0 0 0 0 0 0 0 0 0 0 0 0 0 0 0 0 0 0 0 0 0 0 0 0 21 0 38 0 0 0 0 0 0 0 0 0 0 0 0 0 0 0 39 0 0 0 0 0 0 0 0 36 0 0 0 0 0 0 0 0 0 0 0 39 0 0 0 0 0 0 0 0 0 33 0 0 0 
		29 0 0 0 0 0 0 0 0 0 0 33 0 0 0 0 0 39 0 0 0 0 0 0 0 0 0 0 32 0 0 0 0 0 0 0 0 0 0 0 0 0 0 0 0 36 0 0 0 0 0 0 0 0 0 0 0 0 0 0 0 0 0 0 0 0 0 0 0 0 0 0 0 0 28 0 0 0 39 0 0 0 0 0 0 0 0 0 26 0 0 0 0 0 0 0 
		30 0 0 0 0 0 0 0 22 0 0 0 0 0 0 0 0 0 0 0 0 0 0 0 0 0 0 0 0 0 0 0 37 0 0 0 0 31 0 35 0 0 0 0 0 0 0 0 40 0 0 0 0 0 0 0 0 0 0 0 0 0 0 0 0 0 0 0 0 0 0 0 0 0 31 0 0 0 26 0 0 0 0 0 0 0 0 0 0 0 0 0 0 0 0 37 
		31 0 0 25 0 0 0 0 0 0 0 0 39 0 0 0 0 0 0 0 33 0 0 0 0 0 29 0 0 0 0 37 0 0 0 0 0 0 34 21 0 0 0 0 36 0 0 0 0 0 0 0 0 0 0 36 0 0 40 0 0 0 0 0 0 38 0 0 0 0 0 0 0 0 28 0 0 0 0 0 36 0 0 0 0 0 0 0 20 0 0 23 0 0 0 0 
		32 0 0 0 0 0 0 0 0 0 0 0 0 0 0 0 25 0 0 0 0 0 0 0 0 0 24 0 0 0 0 0 0 0 0 0 0 0 0 0 20 0 0 0 38 0 0 0 0 0 0 0 0 0 0 0 0 0 0 0 0 0 0 0 0 0 0 0 0 0 0 0 0 25 0 0 20 0 0 0 0 0 0 0 0 0 0 0 0 0 0 0 0 0 22 0 
		33 0 0 35 26 0 0 0 0 0 31 26 0 0 0 0 0 27 0 0 30 0 0 0 0 0 0 0 0 0 0 0 0 0 0 0 0 0 31 0 0 0 0 0 0 0 0 0 0 0 0 0 0 26 0 0 0 0 0 0 0 0 0 0 0 0 0 0 0 0 0 0 0 0 0 0 0 0 0 0 0 0 0 0 0 0 32 0 37 0 0 0 0 29 0 0 
		34 0 0 37 0 0 0 21 0 0 0 0 0 0 0 0 0 0 0 0 0 0 0 38 23 24 0 0 0 0 0 0 0 0 0 0 0 0 0 26 0 0 0 0 0 0 0 0 0 0 0 0 30 0 0 0 35 26 0 0 0 21 0 0 0 0 0 0 0 0 0 26 0 0 29 0 29 0 35 0 0 0 0 0 20 0 0 0 0 0 0 0 29 0 0 36 
		35 0 0 0 0 0 0 0 0 0 0 0 0 0 0 0 0 0 0 20 0 0 0 0 0 25 35 33 0 0 0 0 0 0 0 0 0 0 0 0 26 0 0 0 0 0 0 0 0 0 0 29 0 23 0 0 0 20 0 0 0 0 23 0 0 0 0 0 0 0 0 0 0 0 0 0 0 0 0 0 0 0 39 40 0 0 0 0 0 26 0 0 0 26 0 0 
		36 0 0 38 0 0 0 30 0 0 0 20 0 0 0 0 0 0 0 0 0 0 0 0 0 0 37 0 0 0 0 31 0 0 0 0 0 0 0 0 38 0 40 0 0 0 0 0 0 0 0 0 0 0 0 0 0 20 0 0 0 25 0 0 0 0 0 0 27 0 0 0 0 0 0 35 0 0 0 22 0 0 0 0 0 0 32 0 0 24 36 0 0 0 0 0 
		37 35 0 0 0 0 38 0 0 0 0 0 0 0 0 35 0 0 0 0 23 23 0 0 0 0 0 0 0 0 0 0 34 0 31 0 0 0 0 0 0 0 0 23 0 0 0 0 0 0 0 0 27 0 0 0 32 0 0 0 0 0 0 0 0 24 0 0 0 0 0 0 0 0 0 0 25 0 0 0 0 0 0 0 0 0 0 0 0 0 0 0 0 40 0 0 
		38 0 40 0 0 0 37 25 0 0 0 0 0 0 29 0 0 0 0 0 0 0 0 0 33 0 0 0 0 0 0 35 21 0 0 26 0 0 0 0 0 0 0 0 0 0 0 0 0 0 0 0 0 0 0 0 0 0 0 0 0 0 24 24 0 21 25 0 0 0 34 0 0 0 0 40 0 20 0 0 0 0 0 0 0 0 0 0 0 0 0 0 30 0 0 0 
		39 0 33 0 0 0 0 36 0 0 0 33 0 0 0 0 0 0 0 0 0 0 29 0 0 0 0 0 0 0 0 0 0 20 0 0 26 38 0 0 0 0 0 0 32 0 0 0 39 0 0 0 0 0 0 0 0 37 0 0 0 0 21 25 0 26 0 0 0 0 0 0 0 0 28 0 0 0 0 0 0 0 20 0 0 0 0 0 0 0 0 0 0 0 0 0 
		40 31 0 0 0 0 0 0 0 0 0 0 0 0 0 32 0 0 0 0 0 0 0 0 0 0 0 0 0 0 0 0 0 0 0 0 0 0 0 0 0 0 0 0 0 0 0 0 0 0 0 0 20 0 0 0 36 0 0 0 0 0 0 0 0 0 0 0 0 0 35 0 0 0 0 0 0 0 0 0 0 0 0 0 0 0 0 0 0 0 0 0 0 0 0 0 
		41 0 0 0 0 0 0 36 0 0 0 0 0 0 0 0 0 0 0 0 0 0 0 27 0 34 0 20 0 0 0 0 0 0 0 0 0 40 0 0 0 0 0 0 0 0 0 0 0 0 0 0 37 0 0 0 0 0 0 0 24 0 0 0 27 0 0 0 39 0 0 0 0 0 38 0 0 0 0 0 0 0 0 0 0 0 0 0 0 0 0 0 0 0 0 0 
		42 0 0 0 0 0 0 20 0 0 0 0 0 0 0 0 0 0 0 0 0 0 0 0 0 0 0 0 0 21 0 0 0 0 0 0 0 0 23 0 0 0 0 0 0 0 0 0 0 0 0 34 0 0 0 0 0 0 0 0 0 0 0 0 0 0 0 0 0 0 0 0 0 0 0 0 0 0 0 0 22 0 0 0 0 0 0 0 0 0 0 0 0 0 0 0 
		43 0 0 0 0 0 0 0 0 0 0 0 0 0 0 0 0 0 0 0 0 0 0 0 24 0 0 0 0 0 0 0 36 38 0 0 0 0 0 0 32 0 0 0 0 0 0 0 39 0 0 0 0 0 0 0 0 0 0 0 0 0 0 0 0 33 0 0 0 0 23 0 0 0 0 0 0 0 0 35 20 0 0 0 40 0 0 0 0 0 0 0 30 0 0 0 
		44 0 0 22 0 0 0 0 0 0 0 0 0 0 34 0 0 0 0 23 0 0 0 0 0 0 0 0 0 38 36 0 0 0 0 0 0 0 0 0 0 0 0 0 0 0 0 0 0 0 0 0 0 0 0 0 0 0 0 25 0 0 0 0 0 0 0 0 0 0 0 0 0 0 0 0 0 0 0 0 0 0 0 40 0 0 0 0 0 0 0 0 0 0 0 0 
		45 0 27 0 0 0 0 0 0 36 0 0 0 0 0 37 0 0 0 0 0 0 24 0 0 0 20 0 0 0 0 0 0 0 0 0 0 0 0 0 0 0 0 0 0 0 0 0 0 0 0 0 0 0 0 0 0 0 0 0 0 0 0 22 0 0 0 0 0 37 0 0 0 0 0 0 0 0 0 0 0 30 0 0 0 0 0 0 0 0 0 0 0 0 0 20 
		46 21 27 0 0 0 0 0 29 0 0 0 0 0 0 0 0 0 0 0 0 0 30 0 0 0 0 0 0 0 0 0 0 0 0 0 0 0 0 0 0 0 0 0 0 0 0 0 0 0 0 0 0 0 0 0 0 0 0 0 0 0 22 0 0 0 0 0 0 0 0 0 0 0 0 0 0 33 29 0 0 29 0 26 0 0 0 28 0 0 0 0 0 28 0 0 
		47 0 0 0 0 0 0 0 22 0 0 0 0 0 0 0 0 0 0 0 0 0 0 0 0 0 0 0 0 0 0 40 0 0 0 0 0 0 0 0 39 0 0 0 39 0 0 0 0 0 0 0 30 0 0 0 0 0 29 23 0 37 0 22 0 0 0 0 0 0 0 0 0 0 40 0 27 0 0 0 0 0 0 0 0 0 23 0 0 0 0 0 0 28 0 0 
		48 0 0 0 0 0 0 0 0 0 0 0 0 0 38 0 0 0 0 0 0 0 0 0 0 0 0 0 0 0 0 0 0 0 0 0 0 0 0 0 0 0 0 0 0 0 0 0 0 0 0 0 0 0 0 0 0 0 0 0 0 0 0 0 0 0 0 0 0 0 29 0 0 0 0 0 0 0 0 0 0 0 0 0 0 0 0 0 0 0 0 0 0 0 0 0 
		49 0 0 0 0 0 0 0 0 0 24 0 0 0 0 0 0 0 0 0 0 0 0 0 0 0 35 0 30 0 0 0 0 0 0 0 0 0 0 0 0 0 0 0 0 0 0 0 0 0 0 0 0 27 0 0 0 0 28 0 0 0 0 0 0 27 0 0 0 38 35 0 0 27 0 0 0 0 0 0 0 0 36 0 0 0 0 0 32 0 26 0 0 27 0 0 
		50 0 0 36 0 0 0 0 0 0 0 32 26 0 38 0 0 0 0 20 25 37 0 0 0 0 0 0 0 0 0 0 0 0 0 0 29 0 0 0 0 0 0 34 0 0 0 0 0 0 0 0 0 0 0 0 0 36 0 0 0 0 32 0 0 0 0 0 0 0 0 0 0 0 0 0 0 0 0 0 0 0 0 27 26 0 0 0 0 21 0 0 0 0 0 0 
		51 0 0 21 0 0 0 0 0 0 40 0 0 0 0 38 0 0 24 0 32 0 0 0 0 0 0 0 0 0 0 0 0 0 0 30 0 0 27 0 0 20 37 0 0 0 0 0 30 0 0 0 0 0 0 0 0 0 0 0 0 0 0 0 0 0 0 0 37 0 0 0 0 0 0 0 0 0 0 31 0 0 0 0 0 0 0 0 0 0 0 25 0 0 0 37 
		52 0 0 0 0 0 25 0 0 0 0 0 0 0 0 0 0 0 0 0 26 0 0 0 0 0 0 0 0 0 0 0 0 0 26 0 23 0 0 0 0 0 0 0 0 0 0 0 0 0 27 0 0 0 0 0 0 26 0 0 34 0 0 0 0 0 0 0 0 0 0 0 0 0 0 0 0 36 0 0 0 0 0 0 0 0 0 0 0 0 0 0 0 0 39 0 
		53 0 0 0 0 0 0 0 0 0 24 0 0 0 0 0 0 0 0 0 0 0 0 0 0 0 0 0 0 0 0 0 0 0 0 0 0 0 0 0 0 0 0 0 0 0 0 0 0 0 0 0 0 0 0 0 0 0 0 0 0 0 0 0 0 0 0 0 37 37 0 0 0 0 0 0 0 0 0 0 0 0 0 0 0 0 0 0 0 0 0 20 0 0 0 0 
		54 0 0 0 0 0 0 0 0 0 28 0 0 0 0 0 0 0 0 0 0 0 0 0 0 0 0 0 28 0 0 0 36 0 0 0 0 0 0 0 0 0 0 0 0 0 0 0 0 0 0 0 0 0 0 0 0 0 0 0 0 0 0 0 21 0 25 0 0 0 0 20 0 0 0 0 0 0 0 0 0 0 0 0 34 0 0 0 0 35 0 0 0 0 0 0 
		55 33 0 0 0 0 0 0 0 0 0 0 0 0 0 0 0 0 29 0 0 0 0 0 0 0 0 0 0 0 0 0 0 0 0 35 0 0 32 0 0 36 0 0 0 0 0 0 0 0 0 0 0 0 0 0 0 0 0 0 0 0 0 0 0 0 0 0 0 0 0 39 0 0 0 0 0 0 0 0 0 0 0 0 0 0 0 0 0 0 0 24 0 0 0 0 
		56 0 0 0 0 0 0 0 0 0 0 38 0 0 28 0 0 0 0 0 0 0 0 25 39 0 0 40 0 0 0 0 0 0 0 26 20 20 0 0 37 0 0 0 0 0 0 0 0 0 0 36 0 26 0 0 0 0 21 0 0 0 0 0 0 0 0 0 0 0 0 0 0 0 0 0 0 0 0 0 0 27 0 0 0 0 0 0 27 0 0 0 28 0 0 0 
		57 0 0 24 0 0 0 0 0 0 0 0 0 0 0 37 0 0 0 0 0 0 0 0 0 0 34 0 0 0 0 0 40 0 0 0 0 0 0 0 0 0 0 0 0 0 0 0 29 0 28 0 0 0 0 0 0 21 0 0 0 0 0 0 0 0 0 0 0 0 0 0 0 0 0 0 0 0 0 0 0 0 0 0 38 0 0 0 0 0 0 0 0 0 25 0 
		58 0 0 0 0 0 0 0 0 0 0 0 0 0 0 0 0 0 0 0 0 0 0 0 0 0 0 0 0 0 0 0 0 0 0 0 0 0 0 0 0 0 0 0 0 25 0 0 23 0 0 0 0 0 0 0 0 0 0 0 0 0 0 29 0 0 0 32 0 0 0 0 0 0 0 0 0 0 21 0 0 0 0 21 0 0 0 0 0 0 0 0 0 37 0 37 
		59 0 0 0 0 0 0 0 0 0 30 22 0 0 0 31 0 0 0 0 0 0 20 0 28 0 0 0 0 0 0 0 0 0 0 0 0 0 0 0 0 0 24 0 0 0 0 0 0 0 0 0 0 34 0 0 0 0 0 0 0 22 33 0 0 0 0 0 27 0 0 0 0 0 0 0 0 0 0 0 0 40 0 0 0 0 0 0 0 0 0 0 0 0 0 31 
		60 0 0 31 0 0 0 29 0 0 0 0 0 0 0 0 0 0 0 0 0 0 0 0 0 0 0 0 0 39 0 0 0 0 0 21 0 25 0 0 0 0 0 0 0 0 0 0 37 0 0 0 0 0 0 0 0 0 0 0 22 0 26 23 0 0 0 0 26 0 24 0 0 0 0 0 0 25 0 38 0 0 0 0 0 0 0 0 0 34 26 24 0 0 32 0 
		61 0 36 0 0 0 0 28 0 0 0 0 0 0 0 0 0 0 0 0 0 0 0 0 0 0 0 37 0 0 0 0 0 0 0 0 23 0 0 24 21 0 0 0 0 0 0 22 0 0 0 32 0 0 0 0 0 0 0 0 33 26 0 0 0 0 0 0 0 0 35 0 0 0 0 0 0 0 0 0 25 0 0 0 0 0 0 0 0 0 0 0 36 0 0 0 
		62 0 0 0 0 0 0 0 0 0 0 0 0 0 0 21 0 0 0 0 0 0 0 0 0 0 0 0 0 0 0 0 0 0 0 0 0 0 0 24 25 0 0 0 0 0 22 0 22 0 0 0 0 0 0 0 0 0 0 29 0 23 0 0 0 22 0 0 0 0 0 0 35 0 40 0 0 0 0 0 28 0 0 0 0 0 0 0 0 0 0 0 21 0 0 0 
		63 0 0 0 0 0 0 0 0 0 0 0 0 0 0 0 0 0 0 0 0 0 0 0 0 0 31 0 0 0 0 0 0 0 0 0 0 0 0 0 0 0 27 0 0 0 0 0 0 0 0 0 0 0 0 21 0 0 0 0 0 0 0 0 0 0 0 0 0 0 0 0 0 0 0 0 0 0 0 0 0 0 0 0 37 0 0 0 0 0 0 0 0 0 0 0 
		64 25 0 0 0 0 0 36 0 34 0 0 0 0 0 0 30 0 0 0 0 0 27 0 0 0 0 0 0 0 0 0 38 0 0 0 0 0 24 21 26 0 0 0 33 0 0 0 0 0 27 0 0 0 0 0 0 0 0 0 0 0 0 22 0 0 0 0 0 0 37 0 0 0 0 0 0 30 0 0 0 0 0 0 0 0 0 22 35 0 0 0 0 0 0 0 
		65 0 0 0 0 0 0 0 0 0 0 0 0 0 0 0 0 0 0 0 25 0 0 0 33 0 0 0 0 0 0 0 0 0 0 0 0 0 0 25 0 0 0 0 0 0 0 0 0 0 0 0 0 0 0 25 0 0 0 0 0 0 0 0 0 0 0 0 0 0 0 0 0 0 0 0 0 25 0 0 0 39 0 0 0 0 0 0 0 0 0 0 0 0 0 0 
		66 21 0 22 0 0 0 0 0 0 0 0 0 0 0 0 36 0 0 0 0 0 0 0 0 0 0 0 0 0 0 0 0 0 0 0 0 0 0 0 0 0 0 0 0 0 0 0 0 0 0 0 0 0 0 0 0 0 0 32 0 0 0 0 0 0 0 0 0 0 0 24 0 0 0 0 0 0 0 33 0 0 0 0 0 0 0 0 0 0 0 0 0 0 0 0 
		67 0 0 0 0 0 32 0 0 0 0 0 0 0 0 0 0 0 39 0 0 0 0 0 0 0 0 0 0 0 0 0 0 0 0 0 0 27 0 0 0 0 39 0 0 0 0 0 0 0 0 0 37 0 37 0 0 0 0 0 27 26 0 0 0 0 0 0 0 0 0 0 0 0 0 0 0 0 0 0 0 0 0 0 0 0 0 0 0 0 0 0 0 0 0 0 
		68 0 0 0 0 0 0 0 35 22 0 0 0 31 0 29 0 0 37 0 0 0 0 37 25 0 0 0 29 0 0 0 0 0 0 0 0 0 0 0 0 0 0 0 0 0 37 0 0 0 38 0 0 0 37 0 0 0 0 0 0 0 0 0 0 0 0 0 0 0 0 0 0 0 0 0 0 0 33 0 0 0 0 0 0 0 0 22 0 0 0 37 0 0 0 20 
		69 0 0 31 0 0 0 0 0 23 0 34 0 0 0 0 0 0 0 0 0 26 0 0 0 0 0 0 0 36 0 0 0 0 0 0 0 0 0 34 0 35 0 0 23 0 0 0 0 29 35 0 0 0 0 0 0 0 0 0 0 24 35 0 0 37 0 0 0 0 0 0 0 23 0 28 0 0 0 0 0 0 0 0 0 0 0 0 30 0 0 0 0 0 0 0 
		70 33 0 0 0 0 0 0 0 0 28 0 0 25 0 0 0 0 25 0 0 0 0 35 0 36 0 0 0 0 0 0 0 0 0 26 0 0 0 0 0 0 0 0 0 0 0 0 0 0 0 0 0 0 0 20 39 0 0 0 0 0 0 0 0 0 0 24 0 0 0 0 0 0 0 0 0 0 0 0 0 0 0 0 24 0 23 0 0 0 0 0 0 0 0 38 
		71 0 0 0 0 0 0 0 40 0 0 0 0 0 0 21 0 20 0 0 0 0 0 0 0 0 0 0 0 0 0 0 0 0 0 0 0 0 0 0 0 0 0 0 0 0 0 0 0 0 0 0 0 0 0 0 0 0 0 0 0 0 0 35 0 0 0 0 0 0 0 0 0 0 0 0 0 25 32 0 0 0 0 0 0 0 38 0 0 0 0 0 0 0 0 20 
		72 0 0 0 28 0 0 30 0 0 33 0 0 0 0 0 0 0 0 0 0 20 0 0 0 28 34 0 29 0 0 0 0 25 0 0 0 0 0 0 0 0 0 0 0 0 0 0 0 0 27 0 0 0 0 0 0 0 0 0 0 0 0 0 0 0 0 0 0 0 23 0 0 0 0 32 0 0 0 0 0 0 31 0 0 0 26 0 0 0 0 0 0 0 0 0 
		73 0 0 0 0 0 0 0 20 0 0 0 0 0 0 0 0 24 0 0 33 0 30 0 40 0 0 0 37 0 28 31 28 0 0 29 0 0 0 0 28 0 38 0 0 0 0 0 40 0 0 0 0 0 0 0 0 0 0 0 0 0 0 40 0 0 0 0 0 0 0 0 0 0 0 0 0 0 0 22 0 0 0 0 0 0 35 0 0 0 0 37 0 0 0 0 
		74 0 0 0 0 0 0 28 0 0 32 0 0 0 0 0 0 31 21 0 0 22 0 0 0 0 0 0 0 0 0 0 0 0 0 0 0 35 0 40 0 0 0 0 0 0 0 0 0 0 0 0 0 0 0 0 0 0 0 0 0 0 0 0 0 0 0 0 0 0 28 0 0 32 0 0 0 0 0 0 0 0 0 0 0 0 0 0 0 0 0 0 30 0 0 0 
		75 0 0 0 0 0 0 0 0 36 0 0 0 0 0 0 0 0 0 0 0 22 0 0 0 0 0 0 0 0 0 0 0 20 0 29 0 0 25 0 0 0 0 0 0 0 0 0 27 0 0 0 0 0 0 0 0 0 0 0 0 0 0 0 0 0 0 0 0 0 0 0 0 0 0 0 0 0 0 0 0 0 0 0 38 0 0 0 0 0 0 0 0 0 0 0 
		76 0 39 0 0 0 23 0 0 0 0 22 0 0 0 0 0 0 0 0 0 0 0 0 0 0 0 0 0 0 0 0 0 0 0 0 0 0 0 20 0 0 0 0 0 0 0 33 0 0 0 0 0 36 0 0 0 0 0 0 0 25 0 0 0 30 25 0 0 0 0 0 25 0 0 0 0 0 0 0 0 0 0 0 0 0 0 0 0 0 0 0 0 0 24 40 
		77 30 0 0 20 0 0 0 0 35 0 0 0 0 0 0 0 0 0 0 0 0 0 0 0 0 0 0 26 0 39 26 0 0 0 35 0 0 0 0 0 0 0 0 0 0 0 29 0 0 0 0 0 0 0 0 0 0 0 21 0 0 0 0 0 0 0 0 0 33 0 0 32 0 0 0 0 0 0 0 0 39 0 22 0 0 0 0 0 0 0 0 0 0 0 0 
		78 0 0 0 0 0 0 0 26 0 0 0 0 0 0 0 0 0 22 0 0 39 0 0 0 0 0 0 0 0 0 0 0 0 0 0 0 22 0 0 0 0 0 0 35 0 0 0 0 0 0 0 31 0 0 0 0 0 0 0 0 38 0 0 0 0 0 33 0 0 0 0 0 0 22 0 0 0 0 0 0 0 0 0 0 0 0 0 0 0 0 0 0 0 0 0 
		79 0 0 0 0 0 0 0 0 0 0 0 0 0 0 0 0 0 0 0 0 0 0 0 0 0 0 0 0 0 0 0 36 0 0 0 0 0 0 0 0 0 0 22 20 0 0 0 0 0 0 0 0 0 0 0 0 0 0 0 0 0 25 28 0 0 0 0 0 0 0 0 0 0 0 0 0 0 0 0 0 0 0 0 0 0 0 0 0 0 0 0 0 0 0 0 
		80 0 0 0 35 0 0 0 0 0 0 0 0 0 0 0 0 0 0 0 0 0 32 0 0 0 0 0 0 0 0 0 0 0 0 0 0 0 0 0 0 0 0 0 0 0 30 29 0 0 0 0 0 0 0 0 0 27 0 0 40 0 0 0 0 0 39 0 0 0 0 0 0 0 0 0 0 0 39 0 0 0 0 0 0 39 0 37 0 0 0 0 0 0 35 0 
		81 39 0 40 0 0 0 0 0 0 0 0 0 0 0 0 0 0 38 0 0 0 0 0 0 0 0 0 0 39 0 0 0 0 0 0 39 0 0 0 20 0 0 0 0 0 0 0 0 0 36 0 0 0 0 0 0 0 0 0 0 0 0 0 0 0 0 0 0 0 0 0 0 31 0 0 0 0 0 0 0 0 0 30 0 0 0 0 0 0 0 0 0 0 0 0 
		82 0 35 0 0 0 0 0 0 0 0 0 0 0 20 0 0 0 0 0 0 0 0 0 0 0 0 0 0 0 0 0 0 0 0 0 40 0 0 0 0 0 0 0 0 40 0 26 0 0 0 27 0 0 0 0 0 0 0 21 0 0 0 0 0 0 0 0 0 0 0 0 0 0 0 0 0 0 22 0 0 0 30 0 0 0 0 0 0 0 0 0 0 0 0 0 
		83 0 0 27 0 0 0 36 0 0 0 0 0 0 0 0 0 0 30 0 0 0 0 0 37 0 0 0 0 0 0 0 0 0 0 20 0 0 0 0 0 0 0 0 40 0 0 0 0 0 0 26 0 0 0 34 0 0 38 0 0 0 0 0 37 0 0 0 0 0 0 24 0 0 0 0 38 0 0 0 0 0 0 0 0 0 0 0 0 0 0 0 0 0 0 0 
		84 0 0 0 0 0 0 0 0 0 0 0 0 0 0 0 27 0 0 0 0 0 0 0 0 0 0 0 0 0 0 0 0 0 0 0 0 0 0 0 0 0 0 0 0 0 0 0 0 0 0 0 0 0 0 0 0 0 0 0 0 0 0 0 0 0 0 0 0 0 0 0 0 0 0 0 0 0 0 0 0 39 0 0 0 0 0 0 0 0 0 0 0 40 0 0 
		85 0 0 20 0 0 0 0 0 0 0 0 23 0 0 0 0 0 0 0 0 0 0 0 0 28 0 0 0 0 0 0 0 0 32 0 0 32 0 0 0 0 0 0 0 0 0 0 23 0 0 0 0 0 0 0 0 0 0 0 0 0 0 0 0 0 0 0 0 0 0 23 38 26 35 0 0 0 0 0 0 0 0 0 0 0 0 0 0 0 0 0 0 0 0 0 
		86 0 36 0 0 0 0 0 0 28 0 0 0 0 0 0 0 0 0 0 0 0 0 0 0 0 0 0 0 0 0 0 0 0 0 0 0 0 0 0 0 0 0 0 0 0 0 28 0 0 0 0 0 0 0 0 0 0 0 0 0 0 0 0 0 22 0 0 0 22 0 0 0 0 0 0 0 0 0 0 0 37 0 0 0 0 0 0 0 0 0 0 0 30 0 0 
		87 0 0 0 0 0 0 25 0 0 0 0 0 0 0 0 0 0 0 0 0 0 0 0 21 0 0 0 22 0 26 0 20 0 37 0 0 0 0 0 0 0 0 0 0 0 0 0 0 0 32 0 0 0 0 0 0 27 0 0 0 0 0 0 0 35 0 0 0 0 30 0 0 0 0 0 0 0 0 0 0 0 0 0 0 0 0 0 0 0 0 0 0 0 0 0 
		88 0 0 0 0 0 0 0 30 0 0 0 0 0 25 0 0 0 0 26 0 40 0 0 0 0 0 0 0 0 0 0 0 0 0 0 26 24 0 0 0 0 0 0 0 0 0 0 0 0 0 21 0 0 0 35 0 0 0 0 0 34 0 0 0 0 0 0 0 0 0 0 0 0 0 0 0 0 0 0 0 0 0 0 0 0 0 0 0 0 0 0 30 0 0 0 
		89 0 39 0 0 0 0 0 0 0 0 0 0 0 0 0 0 0 0 0 0 0 0 0 0 0 0 0 38 0 0 0 0 0 0 0 0 36 0 0 0 0 0 0 0 0 0 0 0 0 26 0 0 0 0 0 0 0 0 0 0 26 0 0 0 0 0 0 0 0 0 0 0 0 0 0 0 0 0 0 0 0 0 0 0 0 0 0 0 0 0 0 0 38 0 0 
		90 0 0 0 0 0 0 0 0 0 0 0 0 0 0 0 0 0 40 0 0 0 0 0 30 0 0 0 0 0 0 0 23 0 0 0 0 0 0 0 0 0 0 0 0 0 0 0 0 0 0 0 25 0 20 0 24 0 0 0 0 24 0 0 0 0 0 0 0 37 0 0 0 0 37 0 0 0 0 0 0 0 0 0 0 0 0 0 0 0 0 0 0 31 0 0 
		91 0 0 0 35 0 0 0 0 0 0 0 0 0 36 0 0 0 0 0 0 0 0 0 0 0 0 0 25 33 0 0 0 0 0 29 0 0 0 30 0 0 0 0 30 0 0 0 0 0 0 0 0 0 0 0 0 28 0 0 0 0 36 21 0 0 0 0 0 0 0 0 0 0 0 30 0 0 0 0 0 0 0 0 0 0 0 0 0 30 0 0 0 0 0 33 
		92 0 0 0 0 0 0 0 0 0 0 0 0 0 0 0 0 0 0 0 0 0 24 0 33 0 0 0 39 0 0 0 0 0 29 0 26 0 40 0 0 0 0 0 0 0 0 28 28 0 27 0 0 0 0 0 0 0 0 37 0 0 0 0 0 0 0 0 0 0 0 0 0 0 0 0 0 0 0 0 0 0 0 0 0 40 0 30 0 0 38 31 0 0 0 0 
		93 0 23 0 28 0 0 0 0 0 0 0 0 0 0 0 26 0 0 0 0 0 0 0 0 0 0 0 0 0 0 0 0 22 0 0 0 0 0 0 0 0 0 0 0 0 0 0 0 0 0 0 0 39 0 0 0 0 25 0 0 32 0 0 0 0 0 0 0 0 0 0 0 0 0 0 0 24 0 0 0 35 0 0 0 0 0 0 0 0 0 0 0 0 0 0 
		94 0 0 0 0 0 0 0 0 0 0 0 0 0 0 0 0 0 0 0 0 0 24 0 0 0 0 0 0 0 0 37 0 0 0 36 0 0 0 0 0 0 0 0 0 0 20 0 0 0 0 0 37 0 0 0 0 0 0 37 31 0 0 0 0 0 0 0 0 20 0 38 20 0 0 0 0 40 0 0 0 0 0 0 0 0 0 0 0 0 0 0 33 0 0 0 
;
